NAME: random-80-7849
TYPE: TSP
COMMENT: size=80 seed=7849
DIMENSION: 162
EDGE_WEIGHT_TYPE: EUC_2D
NODE_COORD_SECTION
+0 143 697
-0 143 697
+1 463 382
-1 113 206
+2 470 549
-2 90 913
+3 974 321
-3 870 468
+4 874 101
-4 337 560
+5 675 151
-5 507 899
+6 713 772
-6 564 618
+7 329 974
-7 538 920
+8 515 999
-8 971 745
+9 816 262
-9 205 80
+10 450 864
-10 873 553
+11 654 715
-11 393 491
+12 126 118
-12 497 294
+13 790 877
-13 239 28
+14 30 289
-14 978 322
+15 278 314
-15 457 288
+16 681 778
-16 537 728
+17 539 151
-17 292 164
+18 537 753
-18 806 771
+19 392 793
-19 706 866
+20 76 805
-20 793 608
+21 275 728
-21 779 625
+22 831 824
-22 602 39
+23 260 702
-23 15 454
+24 486 678
-24 751 36
+25 950 769
-25 141 819
+26 31 500
-26 467 480
+27 88 432
-27 835 288
+28 761 398
-28 227 979
+29 220 908
-29 809 907
+30 782 608
-30 425 395
+31 485 395
-31 370 669
+32 1 414
-32 991 539
+33 805 839
-33 67 208
+34 521 909
-34 303 457
+35 653 666
-35 407 579
+36 85 134
-36 249 320
+37 649 496
-37 854 881
+38 772 982
-38 711 794
+39 243 423
-39 632 933
+40 12 461
-40 652 765
+41 428 987
-41 271 798
+42 642 26
-42 111 209
+43 406 931
-43 177 961
+44 8 171
-44 465 272
+45 144 383
-45 125 747
+46 945 82
-46 6 667
+47 866 448
-47 650 595
+48 351 36
-48 621 50
+49 509 337
-49 615 17
+50 827 838
-50 526 527
+51 901 245
-51 313 78
+52 264 950
-52 175 43
+53 334 921
-53 204 940
+54 244 458
-54 902 222
+55 177 292
-55 263 207
+56 630 172
-56 746 628
+57 842 31
-57 316 145
+58 763 892
-58 497 906
+59 466 235
-59 591 648
+60 374 498
-60 52 437
+61 285 178
-61 150 57
+62 45 480
-62 968 780
+63 702 377
-63 964 935
+64 15 992
-64 502 331
+65 823 887
-65 567 93
+66 309 500
-66 180 368
+67 221 708
-67 102 986
+68 627 233
-68 332 690
+69 393 352
-69 145 892
+70 890 852
-70 611 754
+71 891 671
-71 115 310
+72 23 415
-72 294 535
+73 659 421
-73 552 684
+74 143 671
-74 31 438
+75 789 53
-75 885 497
+76 979 291
-76 823 171
+77 613 515
-77 300 454
+78 384 119
-78 333 335
+79 159 596
-79 999 389
+80 530 323
-80 317 199
PRECEDENCE_SECTION
+0 -0
+1 -1
+2 -2
+3 -3
+4 -4
+5 -5
+6 -6
+7 -7
+8 -8
+9 -9
+10 -10
+11 -11
+12 -12
+13 -13
+14 -14
+15 -15
+16 -16
+17 -17
+18 -18
+19 -19
+20 -20
+21 -21
+22 -22
+23 -23
+24 -24
+25 -25
+26 -26
+27 -27
+28 -28
+29 -29
+30 -30
+31 -31
+32 -32
+33 -33
+34 -34
+35 -35
+36 -36
+37 -37
+38 -38
+39 -39
+40 -40
+41 -41
+42 -42
+43 -43
+44 -44
+45 -45
+46 -46
+47 -47
+48 -48
+49 -49
+50 -50
+51 -51
+52 -52
+53 -53
+54 -54
+55 -55
+56 -56
+57 -57
+58 -58
+59 -59
+60 -60
+61 -61
+62 -62
+63 -63
+64 -64
+65 -65
+66 -66
+67 -67
+68 -68
+69 -69
+70 -70
+71 -71
+72 -72
+73 -73
+74 -74
+75 -75
+76 -76
+77 -77
+78 -78
+79 -79
+80 -80
EOF
